Traveling Salesman Problem/TSP_generados/Aleatorio1620390989_12.tsp
NAME: Aleatorio1620390989_12.tsp
COMMENT: Randomly generated scenario
TYPE: TSP
DIMENSION: 12
EDGE_WEIGHT_TYPE: ATT
NODE_COORD_SECTION
1 29.14 6.02
2 45.27 41.33
3 19.07 33.09
4 10.88 40.25
5 1.35 49.73
6 33.02 16.91
7 1.58 18.27
8 39.55 29.09
9 45.99 3.27
10 6.47 4.69
11 38.74 42.98
12 42.03 7.01
