Traveling Salesman Problem/TSP_generados/Aleatorio1620390989_12.opt.tour
NAME: Aleatorio1620390989_12.opt.tour
COMMENT: Optimal solution for Aleatorio1620390989_12 (184.91235769119226)
TYPE: TOUR
DIMENSION: 12
TOUR_SECTION
1 9 12 6 8 2 11 3 4 5 7 10
-1
EOF
